\ENCODING=ISO-8859-1
\Problem name: ilog.cplex

Maximize
 obj: 656 x(0)#0 + 912 x(1)#1 + 753 x(2)#2 + 829 x(3)#3 + 840 x(4)#4
      + 607 x(5)#5 + 834 x(6)#6 + 926 x(7)#7 + 954 x(8)#8 + 705 x(9)#9
      + 727 x(10)#10 + 859 x(11)#11 + 656 x(12)#12 + 700 x(13)#13
      + 874 x(14)#14 + 788 x(15)#15 + 940 x(16)#16 + 748 x(17)#17
      + 749 x(18)#18 + 1023 x(19)#19 + 873 x(20)#20 + 578 x(21)#21
      + 895 x(22)#22 + 984 x(23)#23 + 604 x(24)#24 + 870 x(25)#25
      + 940 x(26)#26 + 645 x(27)#27 + 547 x(28)#28 + 856 x(29)#29
      + 633 x(30)#30 + 857 x(31)#31 + 455 x(32)#32 + 802 x(33)#33
      + 512 x(34)#34 + 885 x(35)#35 + 726 x(36)#36 + 803 x(37)#37
      + 758 x(38)#38 + 867 x(39)#39 + 555 x(40)#40 + 957 x(41)#41
      + 774 x(42)#42 + 490 x(43)#43 + 551 x(44)#44 + 1016 x(45)#45
      + 627 x(46)#46 + 675 x(47)#47 + 529 x(48)#48 + 886 x(49)#49
      + 545 x(50)#50 + 608 x(51)#51 + 712 x(52)#52 + 835 x(53)#53
      + 329 x(54)#54 + 411 x(55)#55 + 474 x(56)#56 + 789 x(57)#57
      + 931 x(58)#58 + 778 x(59)#59 + 759 x(60)#60 + 671 x(61)#61
      + 319 x(62)#62 + 584 x(63)#63 + 668 x(64)#64 + 655 x(65)#65
      + 820 x(66)#66 + 538 x(67)#67 + 676 x(68)#68 + 529 x(69)#69
      + 756 x(70)#70 + 932 x(71)#71 + 1115 x(72)#72 + 594 x(73)#73
      + 790 x(74)#74 + 721 x(75)#75 + 280 x(76)#76 + 839 x(77)#77
      + 450 x(78)#78 + 918 x(79)#79 + 939 x(80)#80 + 952 x(81)#81
      + 548 x(82)#82 + 451 x(83)#83 + 845 x(84)#84 + 337 x(85)#85
      + 739 x(86)#86 + 850 x(87)#87 + 668 x(88)#88 + 818 x(89)#89
      + 855 x(90)#90 + 896 x(91)#91 + 857 x(92)#92 + 519 x(93)#93
      + 651 x(94)#94 + 942 x(95)#95 + 511 x(96)#96 + 419 x(97)#97
      + 723 x(98)#98 + 955 x(99)#99 + 664 x(100)#100 + 1047 x(101)#101
      + 794 x(102)#102 + 543 x(103)#103 + 580 x(104)#104 + 541 x(105)#105
      + 936 x(106)#106 + 550 x(107)#107 + 922 x(108)#108 + 807 x(109)#109
      + 1242 x(110)#110 + 620 x(111)#111 + 706 x(112)#112 + 825 x(113)#113
      + 953 x(114)#114 + 638 x(115)#115 + 901 x(116)#116 + 664 x(117)#117
      + 603 x(118)#118 + 833 x(119)#119 + 1120 x(120)#120 + 1099 x(121)#121
      + 542 x(122)#122 + 986 x(123)#123 + 788 x(124)#124 + 804 x(125)#125
      + 1066 x(126)#126 + 771 x(127)#127 + 934 x(128)#128 + 840 x(129)#129
      + 668 x(130)#130 + 1048 x(131)#131 + 710 x(132)#132 + 1230 x(133)#133
      + 675 x(134)#134 + 962 x(135)#135 + 618 x(136)#136 + 1173 x(137)#137
      + 694 x(138)#138 + 1335 x(139)#139 + 1029 x(140)#140 + 708 x(141)#141
      + 695 x(142)#142 + 277 x(143)#143 + 716 x(144)#144 + 571 x(145)#145
      + 641 x(146)#146 + 652 x(147)#147 + 568 x(148)#148 + 738 x(149)#149
      + 530 x(150)#150 + 836 x(151)#151 + 972 x(152)#152 + 799 x(153)#153
      + 566 x(154)#154 + 925 x(155)#155 + 1004 x(156)#156 + 714 x(157)#157
      + 612 x(158)#158 + 665 x(159)#159 + 446 x(160)#160 + 970 x(161)#161
      + 487 x(162)#162 + 816 x(163)#163 + 817 x(164)#164 + 1006 x(165)#165
      + 643 x(166)#166 + 692 x(167)#167 + 894 x(168)#168 + 690 x(169)#169
      + 628 x(170)#170 + 799 x(171)#171 + 1186 x(172)#172 + 1094 x(173)#173
      + 726 x(174)#174 + 570 x(175)#175 + 637 x(176)#176 + 611 x(177)#177
      + 523 x(178)#178 + 734 x(179)#179 + 828 x(180)#180 + 874 x(181)#181
      + 552 x(182)#182 + 709 x(183)#183 + 931 x(184)#184 + 516 x(185)#185
      + 393 x(186)#186 + 754 x(187)#187 + 449 x(188)#188 + 824 x(189)#189
      + 919 x(190)#190 + 680 x(191)#191 + 856 x(192)#192 + 600 x(193)#193
      + 491 x(194)#194 + 541 x(195)#195 + 902 x(196)#196 + 469 x(197)#197
      + 775 x(198)#198 + 366 x(199)#199 + 721 x(200)#200 + 672 x(201)#201
      + 759 x(202)#202 + 715 x(203)#203 + 845 x(204)#204 + 573 x(205)#205
      + 1053 x(206)#206 + 567 x(207)#207 + 253 x(208)#208 + 675 x(209)#209
      + 1023 x(210)#210 + 677 x(211)#211 + 814 x(212)#212 + 1230 x(213)#213
      + 695 x(214)#214 + 724 x(215)#215 + 722 x(216)#216 + 712 x(217)#217
      + 898 x(218)#218 + 955 x(219)#219 + 534 x(220)#220 + 780 x(221)#221
      + 746 x(222)#222 + 763 x(223)#223 + 510 x(224)#224 + 851 x(225)#225
      + 943 x(226)#226 + 669 x(227)#227 + 785 x(228)#228 + 1071 x(229)#229
      + 699 x(230)#230 + 785 x(231)#231 + 443 x(232)#232 + 599 x(233)#233
      + 637 x(234)#234 + 1024 x(235)#235 + 198 x(236)#236 + 537 x(237)#237
      + 992 x(238)#238 + 301 x(239)#239 + 623 x(240)#240 + 598 x(241)#241
      + 781 x(242)#242 + 606 x(243)#243 + 861 x(244)#244 + 632 x(245)#245
      + 385 x(246)#246 + 618 x(247)#247 + 1006 x(248)#248 + 617 x(249)#249
Subject To
 c1: 667 x(0)#0 + 490 x(1)#1 + 927 x(2)#2 + 936 x(3)#3 + 875 x(4)#4
     + 751 x(5)#5 + 725 x(6)#6 + 751 x(7)#7 + 666 x(8)#8 + 693 x(9)#9
     + 261 x(10)#10 + 521 x(11)#11 + 731 x(12)#12 + 588 x(13)#13 + 788 x(14)#14
     + 442 x(15)#15 + 737 x(16)#16 + 705 x(17)#17 + 290 x(18)#18 + 607 x(19)#19
     + 772 x(20)#20 + 155 x(21)#21 + 904 x(22)#22 + 738 x(23)#23 + 988 x(24)#24
     + 944 x(25)#25 + 357 x(26)#26 + 81 x(27)#27 + 488 x(28)#28 + 614 x(29)#29
     + 803 x(30)#30 + 499 x(31)#31 + 221 x(32)#32 + 209 x(33)#33 + 189 x(34)#34
     + 640 x(35)#35 + 120 x(36)#36 + 784 x(37)#37 + 853 x(38)#38 + 738 x(39)#39
     + 714 x(40)#40 + 717 x(41)#41 + 967 x(42)#42 + 447 x(43)#43 + 574 x(44)#44
     + 992 x(45)#45 + 262 x(46)#46 + 923 x(47)#47 + 451 x(48)#48 + 834 x(49)#49
     + 66 x(50)#50 + 696 x(51)#51 + 258 x(52)#52 + 898 x(53)#53 + 207 x(54)#54
     + 869 x(55)#55 + 327 x(56)#56 + 994 x(57)#57 + 932 x(58)#58 + 72 x(59)#59
     + 663 x(60)#60 + 991 x(61)#61 + 144 x(62)#62 + 771 x(63)#63 + 326 x(64)#64
     + 307 x(65)#65 + 165 x(66)#66 + 119 x(67)#67 + 309 x(68)#68 + 522 x(69)#69
     + 513 x(70)#70 + 443 x(71)#71 + 782 x(72)#72 + 910 x(73)#73 + 968 x(74)#74
     + 587 x(75)#75 + 904 x(76)#76 + 435 x(77)#77 + 20 x(78)#78 + 625 x(79)#79
     + 744 x(80)#80 + 690 x(81)#81 + 280 x(82)#82 + 532 x(83)#83 + 861 x(84)#84
     + 182 x(85)#85 + 287 x(86)#86 + 563 x(87)#87 + 882 x(88)#88 + 280 x(89)#89
     + 23 x(90)#90 + 544 x(91)#91 + 738 x(92)#92 + 531 x(93)#93 + 572 x(94)#94
     + 892 x(95)#95 + 53 x(96)#96 + 519 x(97)#97 + 582 x(98)#98 + 814 x(99)#99
     + 324 x(100)#100 + 814 x(101)#101 + 530 x(102)#102 + 492 x(103)#103
     + 246 x(104)#104 + 184 x(105)#105 + 330 x(106)#106 + 781 x(107)#107
     + 888 x(108)#108 + 614 x(109)#109 + 580 x(110)#110 + 12 x(111)#111
     + 335 x(112)#112 + 936 x(113)#113 + 907 x(114)#114 + 469 x(115)#115
     + 382 x(116)#116 + 592 x(117)#117 + 559 x(118)#118 + 164 x(119)#119
     + 989 x(120)#120 + 491 x(121)#121 + 861 x(122)#122 + 866 x(123)#123
     + 415 x(124)#124 + 979 x(125)#125 + 510 x(126)#126 + 127 x(127)#127
     + 466 x(128)#128 + 134 x(129)#129 + 737 x(130)#130 + 758 x(131)#131
     + 580 x(132)#132 + 443 x(133)#133 + 680 x(134)#134 + 715 x(135)#135
     + 706 x(136)#136 + 538 x(137)#137 + 683 x(138)#138 + 997 x(139)#139
     + 1000 x(140)#140 + 625 x(141)#141 + 271 x(142)#142 + 219 x(143)#143
     + 864 x(144)#144 + 485 x(145)#145 + 491 x(146)#146 + 681 x(147)#147
     + 619 x(148)#148 + 343 x(149)#149 + 320 x(150)#150 + 991 x(151)#151
     + 673 x(152)#152 + 330 x(153)#153 + 943 x(154)#154 + 838 x(155)#155
     + 704 x(156)#156 + 782 x(157)#157 + 264 x(158)#158 + 18 x(159)#159
     + 317 x(160)#160 + 991 x(161)#161 + 117 x(162)#162 + 805 x(163)#163
     + 101 x(164)#164 + 594 x(165)#165 + 547 x(166)#166 + 385 x(167)#167
     + 683 x(168)#168 + 684 x(169)#169 + 388 x(170)#170 + 27 x(171)#171
     + 784 x(172)#172 + 962 x(173)#173 + 604 x(174)#174 + 664 x(175)#175
     + 195 x(176)#176 + 336 x(177)#177 + 538 x(178)#178 + 241 x(179)#179
     + 286 x(180)#180 + 355 x(181)#181 + 282 x(182)#182 + 574 x(183)#183
     + 948 x(184)#184 + 590 x(185)#185 + 725 x(186)#186 + 780 x(187)#187
     + 451 x(188)#188 + 253 x(189)#189 + 15 x(190)#190 + 318 x(191)#191
     + 814 x(192)#192 + 946 x(193)#193 + 244 x(194)#194 + 708 x(195)#195
     + 680 x(196)#196 + 618 x(197)#197 + 898 x(198)#198 + 54 x(199)#199
     + 615 x(200)#200 + 423 x(201)#201 + 300 x(202)#202 + 791 x(203)#203
     + 622 x(204)#204 + 60 x(205)#205 + 972 x(206)#206 + 434 x(207)#207
     + 113 x(208)#208 + 506 x(209)#209 + 814 x(210)#210 + 277 x(211)#211
     + 326 x(212)#212 + 645 x(213)#213 + 733 x(214)#214 + 184 x(215)#215
     + 752 x(216)#216 + 310 x(217)#217 + 230 x(218)#218 + 908 x(219)#219
     + 42 x(220)#220 + 943 x(221)#221 + 830 x(222)#222 + 755 x(223)#223
     + 318 x(224)#224 + 176 x(225)#225 + 900 x(226)#226 + 507 x(227)#227
     + 251 x(228)#228 + 36 x(229)#229 + 614 x(230)#230 + 714 x(231)#231
     + 168 x(232)#232 + 570 x(233)#233 + 308 x(234)#234 + 801 x(235)#235
     + 204 x(236)#236 + 284 x(237)#237 + 343 x(238)#238 + 128 x(239)#239
     + 625 x(240)#240 + 26 x(241)#241 + 352 x(242)#242 + 813 x(243)#243
     + 59 x(244)#244 + 468 x(245)#245 + 144 x(246)#246 + 68 x(247)#247
     + 940 x(248)#248 + 850 x(249)#249 <= 33888
 c2: 443 x(0)#0 + 565 x(1)#1 + 469 x(2)#2 + 732 x(3)#3 + 419 x(4)#4
     + 801 x(5)#5 + 716 x(6)#6 + 872 x(7)#7 + 902 x(8)#8 + 906 x(9)#9
     + 984 x(10)#10 + 535 x(11)#11 + 222 x(12)#12 + 101 x(13)#13 + 461 x(14)#14
     + 262 x(15)#15 + 796 x(16)#16 + 161 x(17)#17 + 288 x(18)#18 + 332 x(19)#19
     + 405 x(20)#20 + 92 x(21)#21 + 890 x(22)#22 + 249 x(23)#23 + 216 x(24)#24
     + 697 x(25)#25 + 109 x(26)#26 + 713 x(27)#27 + 332 x(28)#28 + 684 x(29)#29
     + 128 x(30)#30 + 587 x(31)#31 + 148 x(32)#32 + 617 x(33)#33 + 258 x(34)#34
     + 973 x(35)#35 + 375 x(36)#36 + 600 x(37)#37 + 744 x(38)#38 + 779 x(39)#39
     + 257 x(40)#40 + 201 x(41)#41 + 190 x(42)#42 + 203 x(43)#43 + 596 x(44)#44
     + 927 x(45)#45 + 767 x(46)#46 + 882 x(47)#47 + 644 x(48)#48 + 102 x(49)#49
     + 940 x(50)#50 + 676 x(51)#51 + 653 x(52)#52 + 340 x(53)#53 + 294 x(54)#54
     + 78 x(55)#55 + 197 x(56)#56 + 905 x(57)#57 + 405 x(58)#58 + 899 x(59)#59
     + 761 x(60)#60 + 998 x(61)#61 + 316 x(62)#62 + 448 x(63)#63 + 856 x(64)#64
     + 359 x(65)#65 + 315 x(66)#66 + 649 x(67)#67 + 633 x(68)#68 + 112 x(69)#69
     + 666 x(70)#70 + 424 x(71)#71 + 542 x(72)#72 + 744 x(73)#73 + 949 x(74)#74
     + 297 x(75)#75 + 22 x(76)#76 + 880 x(77)#77 + 116 x(78)#78 + 134 x(79)#79
     + 763 x(80)#80 + 914 x(81)#81 + 600 x(82)#82 + 115 x(83)#83 + 768 x(84)#84
     + 169 x(85)#85 + 677 x(86)#86 + 665 x(87)#87 + 352 x(88)#88 + 469 x(89)#89
     + 482 x(90)#90 + 787 x(91)#91 + 542 x(92)#92 + 419 x(93)#93 + 729 x(94)#94
     + 378 x(95)#95 + 344 x(96)#96 + 142 x(97)#97 + 542 x(98)#98 + 449 x(99)#99
     + 83 x(100)#100 + 432 x(101)#101 + 362 x(102)#102 + 120 x(103)#103
     + 61 x(104)#104 + 783 x(105)#105 + 717 x(106)#106 + 472 x(107)#107
     + 204 x(108)#108 + 624 x(109)#109 + 926 x(110)#110 + 507 x(111)#111
     + 562 x(112)#112 + 780 x(113)#113 + 706 x(114)#114 + 154 x(115)#115
     + 773 x(116)#116 + 316 x(117)#117 + 29 x(118)#118 + 715 x(119)#119
     + 232 x(120)#120 + 317 x(121)#121 + 411 x(122)#122 + 232 x(123)#123
     + 900 x(124)#124 + 100 x(125)#125 + 510 x(126)#126 + 408 x(127)#127
     + 652 x(128)#128 + 448 x(129)#129 + 221 x(130)#130 + 692 x(131)#131
     + 419 x(132)#132 + 938 x(133)#133 + 241 x(134)#134 + 962 x(135)#135
     + 381 x(136)#136 + 926 x(137)#137 + 951 x(138)#138 + 857 x(139)#139
     + 888 x(140)#140 + 262 x(141)#141 + 836 x(142)#142 + 505 x(143)#143
     + 945 x(144)#144 + 707 x(145)#145 + 75 x(146)#146 + 695 x(147)#147
     + 342 x(148)#148 + 491 x(149)#149 + 104 x(150)#150 + 251 x(151)#151
     + 191 x(152)#152 + 201 x(153)#153 + 339 x(154)#154 + 27 x(155)#155
     + 707 x(156)#156 + 167 x(157)#157 + 795 x(158)#158 + 819 x(159)#159
     + 315 x(160)#160 + 580 x(161)#161 + 399 x(162)#162 + 99 x(163)#163
     + 289 x(164)#164 + 213 x(165)#165 + 93 x(166)#166 + 598 x(167)#167
     + 335 x(168)#168 + 69 x(169)#169 + 250 x(170)#170 + 907 x(171)#171
     + 768 x(172)#172 + 716 x(173)#173 + 174 x(174)#174 + 950 x(175)#175
     + 79 x(176)#176 + 65 x(177)#177 + 292 x(178)#178 + 813 x(179)#179
     + 793 x(180)#180 + 687 x(181)#181 + 805 x(182)#182 + 546 x(183)#183
     + 539 x(184)#184 + 232 x(185)#185 + 15 x(186)#186 + 131 x(187)#187
     + 178 x(188)#188 + 493 x(189)#189 + 640 x(190)#190 + 674 x(191)#191
     + 903 x(192)#192 + 969 x(193)#193 + 269 x(194)#194 + 93 x(195)#195
     + 687 x(196)#196 + 585 x(197)#197 + 936 x(198)#198 + 229 x(199)#199
     + 19 x(200)#200 + 771 x(201)#201 + 981 x(202)#202 + 319 x(203)#203
     + 188 x(204)#204 + 273 x(205)#205 + 724 x(206)#206 + 685 x(207)#207
     + 165 x(208)#208 + 580 x(209)#209 + 84 x(210)#210 + 746 x(211)#211
     + 326 x(212)#212 + 800 x(213)#213 + 956 x(214)#214 + 423 x(215)#215
     + 620 x(216)#216 + 884 x(217)#217 + 960 x(218)#218 + 904 x(219)#219
     + 482 x(220)#220 + 622 x(221)#221 + 253 x(222)#222 + 125 x(223)#223
     + 477 x(224)#224 + 872 x(225)#225 + 253 x(226)#226 + 498 x(227)#227
     + 715 x(228)#228 + 589 x(229)#229 + 473 x(230)#230 + 70 x(231)#231
     + 257 x(232)#232 + 186 x(233)#233 + 586 x(234)#234 + 420 x(235)#235
     + 302 x(236)#236 + 36 x(237)#237 + 958 x(238)#238 + 99 x(239)#239
     + 899 x(240)#240 + 341 x(241)#241 + 411 x(242)#242 + 902 x(243)#243
     + 487 x(244)#244 + 238 x(245)#245 + 141 x(246)#246 + 258 x(247)#247
     + 276 x(248)#248 + 220 x(249)#249 <= 30745
 c3: 303 x(0)#0 + 411 x(1)#1 + 363 x(2)#2 + 378 x(3)#3 + 370 x(4)#4 + 37 x(5)#5
     + 832 x(6)#6 + 674 x(7)#7 + 689 x(8)#8 + 539 x(9)#9 + 429 x(10)#10
     + 739 x(11)#11 + 865 x(12)#12 + 354 x(13)#13 + 672 x(14)#14 + 288 x(15)#15
     + 881 x(16)#16 + 171 x(17)#17 + 212 x(18)#18 + 783 x(19)#19 + 805 x(20)#20
     + 371 x(21)#21 + 704 x(22)#22 + 493 x(23)#23 + 609 x(24)#24 + 89 x(25)#25
     + 2 x(26)#26 + 153 x(27)#27 + 96 x(28)#28 + 444 x(29)#29 + 377 x(30)#30
     + 663 x(31)#31 + 475 x(32)#32 + 579 x(33)#33 + 980 x(34)#34 + 793 x(35)#35
     + 880 x(36)#36 + 898 x(37)#37 + 558 x(38)#38 + 117 x(39)#39 + 144 x(40)#40
     + 607 x(41)#41 + 695 x(42)#42 + 289 x(43)#43 + 422 x(44)#44 + 936 x(45)#45
     + 849 x(46)#46 + 183 x(47)#47 + 680 x(48)#48 + 771 x(49)#49 + 135 x(50)#50
     + 32 x(51)#51 + 343 x(52)#52 + 226 x(53)#53 + 37 x(54)#54 + 74 x(55)#55
     + 855 x(56)#56 + 52 x(57)#57 + 943 x(58)#58 + 137 x(59)#59 + 782 x(60)#60
     + 461 x(61)#61 + 523 x(62)#62 + 231 x(63)#63 + 980 x(64)#64 + 41 x(65)#65
     + 838 x(66)#66 + 875 x(67)#67 + 590 x(68)#68 + 907 x(69)#69 + 744 x(70)#70
     + 234 x(71)#71 + 562 x(72)#72 + 263 x(73)#73 + 791 x(74)#74 + 472 x(75)#75
     + 218 x(76)#76 + 849 x(77)#77 + 403 x(78)#78 + 565 x(79)#79 + 641 x(80)#80
     + 516 x(81)#81 + 398 x(82)#82 + 48 x(83)#83 + 646 x(84)#84 + 642 x(85)#85
     + 386 x(86)#86 + 717 x(87)#87 + 324 x(88)#88 + 399 x(89)#89 + 800 x(90)#90
     + 526 x(91)#91 + 541 x(92)#92 + 500 x(93)#93 + 580 x(94)#94 + 298 x(95)#95
     + 394 x(96)#96 + 60 x(97)#97 + 857 x(98)#98 + 608 x(99)#99
     + 300 x(100)#100 + 120 x(101)#101 + 206 x(102)#102 + 489 x(103)#103
     + 191 x(104)#104 + 2 x(105)#105 + 413 x(106)#106 + 193 x(107)#107
     + 476 x(108)#108 + 516 x(109)#109 + 984 x(110)#110 + 724 x(111)#111
     + 26 x(112)#112 + 407 x(113)#113 + 978 x(114)#114 + 536 x(115)#115
     + 242 x(116)#116 + 451 x(117)#117 + 198 x(118)#118 + 878 x(119)#119
     + 567 x(120)#120 + 977 x(121)#121 + 171 x(122)#122 + 632 x(123)#123
     + 15 x(124)#124 + 609 x(125)#125 + 442 x(126)#126 + 65 x(127)#127
     + 133 x(128)#128 + 836 x(129)#129 + 837 x(130)#130 + 951 x(131)#131
     + 730 x(132)#132 + 842 x(133)#133 + 327 x(134)#134 + 402 x(135)#135
     + 120 x(136)#136 + 953 x(137)#137 + 67 x(138)#138 + 938 x(139)#139
     + 644 x(140)#140 + 74 x(141)#141 + 966 x(142)#142 + 74 x(143)#143
     + 637 x(144)#144 + 75 x(145)#145 + 499 x(146)#146 + 710 x(147)#147
     + 41 x(148)#148 + 964 x(149)#149 + 954 x(150)#150 + 677 x(151)#151
     + 674 x(152)#152 + 730 x(153)#153 + 537 x(154)#154 + 510 x(155)#155
     + 691 x(156)#156 + 853 x(157)#157 + 502 x(158)#158 + 397 x(159)#159
     + 382 x(160)#160 + 970 x(161)#161 + 689 x(162)#162 + 610 x(163)#163
     + 289 x(164)#164 + 928 x(165)#165 + 452 x(166)#166 + 853 x(167)#167
     + 971 x(168)#168 + 411 x(169)#169 + 975 x(170)#170 + 564 x(171)#171
     + 554 x(172)#172 + 746 x(173)#173 + 989 x(174)#174 + 88 x(175)#175
     + 346 x(176)#176 + 89 x(177)#177 + 697 x(178)#178 + 995 x(179)#179
     + 948 x(180)#180 + 813 x(181)#181 + 630 x(182)#182 + 754 x(183)#183
     + 109 x(184)#184 + 307 x(185)#185 + 25 x(186)#186 + 658 x(187)#187
     + 50 x(188)#188 + 79 x(189)#189 + 879 x(190)#190 + 444 x(191)#191
     + 932 x(192)#192 + 230 x(193)#193 + 742 x(194)#194 + 728 x(195)#195
     + 375 x(196)#196 + 250 x(197)#197 + 189 x(198)#198 + 314 x(199)#199
     + 442 x(200)#200 + 609 x(201)#201 + 402 x(202)#202 + 207 x(203)#203
     + 566 x(204)#204 + 540 x(205)#205 + 191 x(206)#206 + 134 x(207)#207
     + 327 x(208)#208 + 184 x(209)#209 + 955 x(210)#210 + 791 x(211)#211
     + 324 x(212)#212 + 415 x(213)#213 + 2 x(214)#214 + 181 x(215)#215
     + 334 x(216)#216 + 755 x(217)#217 + 876 x(218)#218 + 315 x(219)#219
     + 258 x(220)#220 + 152 x(221)#221 + 726 x(222)#222 + 719 x(223)#223
     + 415 x(224)#224 + 551 x(225)#225 + 435 x(226)#226 + 960 x(227)#227
     + 774 x(228)#228 + 769 x(229)#229 + 409 x(230)#230 + 385 x(231)#231
     + 604 x(232)#232 + 410 x(233)#233 + 563 x(234)#234 + 979 x(235)#235
     + 193 x(236)#236 + 713 x(237)#237 + 970 x(238)#238 + 172 x(239)#239
     + 134 x(240)#240 + 497 x(241)#241 + 770 x(242)#242 + 474 x(243)#243
     + 680 x(244)#244 + 201 x(245)#245 + 37 x(246)#246 + 318 x(247)#247
     + 423 x(248)#248 + 523 x(249)#249 <= 31417
 c4: 978 x(0)#0 + 464 x(1)#1 + 941 x(2)#2 + 791 x(3)#3 + 227 x(4)#4
     + 630 x(5)#5 + 999 x(6)#6 + 37 x(7)#7 + 322 x(8)#8 + 172 x(9)#9
     + 493 x(10)#10 + 925 x(11)#11 + 249 x(12)#12 + 258 x(13)#13 + 529 x(14)#14
     + 614 x(15)#15 + 787 x(16)#16 + 968 x(17)#17 + 634 x(18)#18 + 840 x(19)#19
     + 526 x(20)#20 + 755 x(21)#21 + 853 x(22)#22 + 331 x(23)#23 + 286 x(24)#24
     + 164 x(25)#25 + 984 x(26)#26 + 923 x(27)#27 + 272 x(28)#28 + 653 x(29)#29
     + 518 x(30)#30 + 762 x(31)#31 + 867 x(32)#32 + 531 x(33)#33 + 410 x(34)#34
     + 196 x(35)#35 + 294 x(36)#36 + 641 x(37)#37 + 924 x(38)#38 + 193 x(39)#39
     + 137 x(40)#40 + 970 x(41)#41 + 996 x(42)#42 + 12 x(43)#43 + 109 x(44)#44
     + 949 x(45)#45 + 130 x(46)#46 + 190 x(47)#47 + 282 x(48)#48 + 702 x(49)#49
     + 545 x(50)#50 + 50 x(51)#51 + 485 x(52)#52 + 25 x(53)#53 + 110 x(54)#54
     + 158 x(55)#55 + 526 x(56)#56 + 189 x(57)#57 + 196 x(58)#58 + 351 x(59)#59
     + 202 x(60)#60 + 33 x(61)#61 + 69 x(62)#62 + 257 x(63)#63 + 422 x(64)#64
     + 450 x(65)#65 + 665 x(66)#66 + 120 x(67)#67 + 334 x(68)#68 + 344 x(69)#69
     + 271 x(70)#70 + 458 x(71)#71 + 960 x(72)#72 + 404 x(73)#73 + 667 x(74)#74
     + 809 x(75)#75 + 116 x(76)#76 + 601 x(77)#77 + 693 x(78)#78 + 505 x(79)#79
     + 904 x(80)#80 + 757 x(81)#81 + 806 x(82)#82 + 254 x(83)#83 + 805 x(84)#84
     + 254 x(85)#85 + 672 x(86)#86 + 619 x(87)#87 + 395 x(88)#88 + 85 x(89)#89
     + 661 x(90)#90 + 570 x(91)#91 + 357 x(92)#92 + 132 x(93)#93 + 364 x(94)#94
     + 959 x(95)#95 + 940 x(96)#96 + 366 x(97)#97 + 162 x(98)#98 + 867 x(99)#99
     + 788 x(100)#100 + 923 x(101)#101 + 654 x(102)#102 + 673 x(103)#103
     + 753 x(104)#104 + 32 x(105)#105 + 883 x(106)#106 + 410 x(107)#107
     + 663 x(108)#108 + 720 x(109)#109 + 740 x(110)#110 + 864 x(111)#111
     + 852 x(112)#112 + 381 x(113)#113 + 681 x(114)#114 + 381 x(115)#115
     + 175 x(116)#116 + 540 x(117)#117 + 308 x(118)#118 + 753 x(119)#119
     + 676 x(120)#120 + 436 x(121)#121 + 713 x(122)#122 + 686 x(123)#123
     + 527 x(124)#124 + 517 x(125)#125 + 993 x(126)#126 + 756 x(127)#127
     + 828 x(128)#128 + 400 x(129)#129 + 277 x(130)#130 + 523 x(131)#131
     + 592 x(132)#132 + 922 x(133)#133 + 67 x(134)#134 + 309 x(135)#135
     + 122 x(136)#136 + 623 x(137)#137 + 635 x(138)#138 + 927 x(139)#139
     + 710 x(140)#140 + 633 x(141)#141 + 398 x(142)#142 + 434 x(143)#143
     + 743 x(144)#144 + 30 x(145)#145 + 427 x(146)#146 + 142 x(147)#147
     + 778 x(148)#148 + 874 x(149)#149 + 160 x(150)#150 + 769 x(151)#151
     + 571 x(152)#152 + 962 x(153)#153 + 842 x(154)#154 + 586 x(155)#155
     + 1000 x(156)#156 + 811 x(157)#157 + 621 x(158)#158 + 633 x(159)#159
     + 143 x(160)#160 + 414 x(161)#161 + 611 x(162)#162 + 963 x(163)#163
     + 713 x(164)#164 + 941 x(165)#165 + 501 x(166)#166 + 78 x(167)#167
     + 91 x(168)#168 + 690 x(169)#169 + 675 x(170)#170 + 792 x(171)#171
     + 872 x(172)#172 + 795 x(173)#173 + 171 x(174)#174 + 624 x(175)#175
     + 73 x(176)#176 + 207 x(177)#177 + 218 x(178)#178 + 337 x(179)#179
     + 831 x(180)#180 + 768 x(181)#181 + 142 x(182)#182 + 42 x(183)#183
     + 854 x(184)#184 + 662 x(185)#185 + 527 x(186)#186 + 943 x(187)#187
     + 330 x(188)#188 + 768 x(189)#189 + 985 x(190)#190 + 349 x(191)#191
     + 53 x(192)#192 + 481 x(193)#193 + 219 x(194)#194 + 608 x(195)#195
     + 848 x(196)#196 + 11 x(197)#197 + 92 x(198)#198 + 557 x(199)#199
     + 494 x(200)#200 + 951 x(201)#201 + 443 x(202)#202 + 454 x(203)#203
     + 103 x(204)#204 + 488 x(205)#205 + 27 x(206)#206 + 169 x(207)#207
     + 449 x(208)#208 + 90 x(209)#209 + 224 x(210)#210 + 15 x(211)#211
     + 278 x(212)#212 + 934 x(213)#213 + 541 x(214)#214 + 117 x(215)#215
     + 486 x(216)#216 + 282 x(217)#217 + 400 x(218)#218 + 517 x(219)#219
     + 563 x(220)#220 + 730 x(221)#221 + 660 x(222)#222 + 225 x(223)#223
     + 910 x(224)#224 + 649 x(225)#225 + 309 x(226)#226 + 133 x(227)#227
     + 957 x(228)#228 + 686 x(229)#229 + 977 x(230)#230 + 721 x(231)#231
     + 345 x(232)#232 + 871 x(233)#233 + 299 x(234)#234 + 145 x(235)#235
     + 80 x(236)#236 + 886 x(237)#237 + 847 x(238)#238 + 45 x(239)#239
     + 664 x(240)#240 + 598 x(241)#241 + 996 x(242)#242 + 7 x(243)#243
     + 326 x(244)#244 + 371 x(245)#245 + 413 x(246)#246 + 705 x(247)#247
     + 770 x(248)#248 + 468 x(249)#249 <= 32247
 c5: 318 x(0)#0 + 546 x(1)#1 + 11 x(2)#2 + 402 x(3)#3 + 526 x(4)#4 + 52 x(5)#5
     + 105 x(6)#6 + 942 x(7)#7 + 313 x(8)#8 + 63 x(9)#9 + 263 x(10)#10
     + 948 x(11)#11 + 435 x(12)#12 + 483 x(13)#13 + 540 x(14)#14 + 122 x(15)#15
     + 828 x(16)#16 + 184 x(17)#17 + 518 x(18)#18 + 454 x(19)#19 + 509 x(20)#20
     + 861 x(21)#21 + 318 x(22)#22 + 858 x(23)#23 + 310 x(24)#24 + 466 x(25)#25
     + 985 x(26)#26 + 441 x(27)#27 + 190 x(28)#28 + 151 x(29)#29 + 427 x(30)#30
     + 918 x(31)#31 + 55 x(32)#32 + 824 x(33)#33 + 20 x(34)#34 + 313 x(35)#35
     + 999 x(36)#36 + 23 x(37)#37 + 519 x(38)#38 + 128 x(39)#39 + 351 x(40)#40
     + 408 x(41)#41 + 487 x(42)#42 + 303 x(43)#43 + 977 x(44)#44 + 690 x(45)#45
     + 89 x(46)#46 + 120 x(47)#47 + 532 x(48)#48 + 603 x(49)#49 + 87 x(50)#50
     + 553 x(51)#51 + 39 x(52)#52 + 625 x(53)#53 + 962 x(54)#54 + 511 x(55)#55
     + 399 x(56)#56 + 328 x(57)#57 + 221 x(58)#58 + 862 x(59)#59 + 304 x(60)#60
     + 270 x(61)#61 + 521 x(62)#62 + 534 x(63)#63 + 381 x(64)#64 + 463 x(65)#65
     + 892 x(66)#66 + 885 x(67)#67 + 640 x(68)#68 + 729 x(69)#69 + 840 x(70)#70
     + 951 x(71)#71 + 768 x(72)#72 + 496 x(73)#73 + 149 x(74)#74 + 917 x(75)#75
     + 29 x(76)#76 + 55 x(77)#77 + 646 x(78)#78 + 489 x(79)#79 + 373 x(80)#80
     + 291 x(81)#81 + 260 x(82)#82 + 133 x(83)#83 + 228 x(84)#84 + 280 x(85)#85
     + 725 x(86)#86 + 406 x(87)#87 + 414 x(88)#88 + 543 x(89)#89 + 34 x(90)#90
     + 948 x(91)#91 + 564 x(92)#92 + 742 x(93)#93 + 531 x(94)#94 + 430 x(95)#95
     + 447 x(96)#96 + 590 x(97)#97 + 963 x(98)#98 + 599 x(99)#99 + 8 x(100)#100
     + 699 x(101)#101 + 940 x(102)#102 + 595 x(103)#103 + 523 x(104)#104
     + 437 x(105)#105 + 960 x(106)#106 + 784 x(107)#107 + 783 x(108)#108
     + 993 x(109)#109 + 748 x(110)#110 + 596 x(111)#111 + 998 x(112)#112
     + 383 x(113)#113 + 5 x(114)#114 + 507 x(115)#115 + 941 x(116)#116
     + 402 x(117)#117 + 919 x(118)#118 + 597 x(119)#119 + 730 x(120)#120
     + 849 x(121)#121 + 153 x(122)#122 + 905 x(123)#123 + 81 x(124)#124
     + 416 x(125)#125 + 819 x(126)#126 + 692 x(127)#127 + 397 x(128)#128
     + 117 x(129)#129 + 603 x(130)#130 + 831 x(131)#131 + 270 x(132)#132
     + 628 x(133)#133 + 498 x(134)#134 + 524 x(135)#135 + 872 x(136)#136
     + 362 x(137)#137 + 201 x(138)#138 + 486 x(139)#139 + 733 x(140)#140
     + 89 x(141)#141 + 578 x(142)#142 + 19 x(143)#143 + 279 x(144)#144
     + 568 x(145)#145 + 785 x(146)#146 + 811 x(147)#147 + 112 x(148)#148
     + 807 x(149)#149 + 199 x(150)#150 + 653 x(151)#151 + 877 x(152)#152
     + 70 x(153)#153 + 106 x(154)#154 + 462 x(155)#155 + 807 x(156)#156
     + 75 x(157)#157 + 622 x(158)#158 + 153 x(159)#159 + 63 x(160)#160
     + 509 x(161)#161 + 138 x(162)#162 + 781 x(163)#163 + 668 x(164)#164
     + 76 x(165)#165 + 682 x(166)#166 + 873 x(167)#167 + 455 x(168)#168
     + 484 x(169)#169 + 344 x(170)#170 + 736 x(171)#171 + 753 x(172)#172
     + 790 x(173)#173 + 666 x(174)#174 + 77 x(175)#175 + 241 x(176)#176
     + 85 x(177)#177 + 97 x(178)#178 + 77 x(179)#179 + 287 x(180)#180
     + 873 x(181)#181 + 870 x(182)#182 + 583 x(183)#183 + 143 x(184)#184
     + 277 x(185)#185 + 149 x(186)#186 + 780 x(187)#187 + 462 x(188)#188
     + 904 x(189)#189 + 527 x(190)#190 + 621 x(191)#191 + 430 x(192)#192
     + 246 x(193)#193 + 697 x(194)#194 + 9 x(195)#195 + 746 x(196)#196
     + 844 x(197)#197 + 702 x(198)#198 + 60 x(199)#199 + 600 x(200)#200
     + 38 x(201)#201 + 964 x(202)#202 + 839 x(203)#203 + 481 x(204)#204
     + 16 x(205)#205 + 953 x(206)#206 + 65 x(207)#207 + 130 x(208)#208
     + 191 x(209)#209 + 933 x(210)#210 + 161 x(211)#211 + 776 x(212)#212
     + 981 x(213)#213 + 116 x(214)#214 + 905 x(215)#215 + 430 x(216)#216
     + 326 x(217)#217 + 801 x(218)#218 + 73 x(219)#219 + 374 x(220)#220
     + 22 x(221)#221 + 68 x(222)#222 + 112 x(223)#223 + 9 x(224)#224
     + 894 x(225)#225 + 903 x(226)#226 + 899 x(227)#227 + 118 x(228)#228
     + 827 x(229)#229 + 180 x(230)#230 + 940 x(231)#231 + 628 x(232)#232
     + 501 x(233)#233 + 295 x(234)#234 + 457 x(235)#235 + 167 x(236)#236
     + 320 x(237)#237 + 498 x(238)#238 + 257 x(239)#239 + 652 x(240)#240
     + 693 x(241)#241 + 12 x(242)#242 + 743 x(243)#243 + 501 x(244)#244
     + 613 x(245)#245 + 769 x(246)#246 + 348 x(247)#247 + 172 x(248)#248
     + 394 x(249)#249 <= 30246
Bounds
 0 <= x(0)#0 <= 1
 0 <= x(1)#1 <= 1
 0 <= x(2)#2 <= 1
 0 <= x(3)#3 <= 1
 0 <= x(4)#4 <= 1
 0 <= x(5)#5 <= 1
 0 <= x(6)#6 <= 1
 0 <= x(7)#7 <= 1
 0 <= x(8)#8 <= 1
 0 <= x(9)#9 <= 1
 0 <= x(10)#10 <= 1
 0 <= x(11)#11 <= 1
 0 <= x(12)#12 <= 1
 0 <= x(13)#13 <= 1
 0 <= x(14)#14 <= 1
 0 <= x(15)#15 <= 1
 0 <= x(16)#16 <= 1
 0 <= x(17)#17 <= 1
 0 <= x(18)#18 <= 1
 0 <= x(19)#19 <= 1
 0 <= x(20)#20 <= 1
 0 <= x(21)#21 <= 1
 0 <= x(22)#22 <= 1
 0 <= x(23)#23 <= 1
 0 <= x(24)#24 <= 1
 0 <= x(25)#25 <= 1
 0 <= x(26)#26 <= 1
 0 <= x(27)#27 <= 1
 0 <= x(28)#28 <= 1
 0 <= x(29)#29 <= 1
 0 <= x(30)#30 <= 1
 0 <= x(31)#31 <= 1
 0 <= x(32)#32 <= 1
 0 <= x(33)#33 <= 1
 0 <= x(34)#34 <= 1
 0 <= x(35)#35 <= 1
 0 <= x(36)#36 <= 1
 0 <= x(37)#37 <= 1
 0 <= x(38)#38 <= 1
 0 <= x(39)#39 <= 1
 0 <= x(40)#40 <= 1
 0 <= x(41)#41 <= 1
 0 <= x(42)#42 <= 1
 0 <= x(43)#43 <= 1
 0 <= x(44)#44 <= 1
 0 <= x(45)#45 <= 1
 0 <= x(46)#46 <= 1
 0 <= x(47)#47 <= 1
 0 <= x(48)#48 <= 1
 0 <= x(49)#49 <= 1
 0 <= x(50)#50 <= 1
 0 <= x(51)#51 <= 1
 0 <= x(52)#52 <= 1
 0 <= x(53)#53 <= 1
 0 <= x(54)#54 <= 1
 0 <= x(55)#55 <= 1
 0 <= x(56)#56 <= 1
 0 <= x(57)#57 <= 1
 0 <= x(58)#58 <= 1
 0 <= x(59)#59 <= 1
 0 <= x(60)#60 <= 1
 0 <= x(61)#61 <= 1
 0 <= x(62)#62 <= 1
 0 <= x(63)#63 <= 1
 0 <= x(64)#64 <= 1
 0 <= x(65)#65 <= 1
 0 <= x(66)#66 <= 1
 0 <= x(67)#67 <= 1
 0 <= x(68)#68 <= 1
 0 <= x(69)#69 <= 1
 0 <= x(70)#70 <= 1
 0 <= x(71)#71 <= 1
 0 <= x(72)#72 <= 1
 0 <= x(73)#73 <= 1
 0 <= x(74)#74 <= 1
 0 <= x(75)#75 <= 1
 0 <= x(76)#76 <= 1
 0 <= x(77)#77 <= 1
 0 <= x(78)#78 <= 1
 0 <= x(79)#79 <= 1
 0 <= x(80)#80 <= 1
 0 <= x(81)#81 <= 1
 0 <= x(82)#82 <= 1
 0 <= x(83)#83 <= 1
 0 <= x(84)#84 <= 1
 0 <= x(85)#85 <= 1
 0 <= x(86)#86 <= 1
 0 <= x(87)#87 <= 1
 0 <= x(88)#88 <= 1
 0 <= x(89)#89 <= 1
 0 <= x(90)#90 <= 1
 0 <= x(91)#91 <= 1
 0 <= x(92)#92 <= 1
 0 <= x(93)#93 <= 1
 0 <= x(94)#94 <= 1
 0 <= x(95)#95 <= 1
 0 <= x(96)#96 <= 1
 0 <= x(97)#97 <= 1
 0 <= x(98)#98 <= 1
 0 <= x(99)#99 <= 1
 0 <= x(100)#100 <= 1
 0 <= x(101)#101 <= 1
 0 <= x(102)#102 <= 1
 0 <= x(103)#103 <= 1
 0 <= x(104)#104 <= 1
 0 <= x(105)#105 <= 1
 0 <= x(106)#106 <= 1
 0 <= x(107)#107 <= 1
 0 <= x(108)#108 <= 1
 0 <= x(109)#109 <= 1
 0 <= x(110)#110 <= 1
 0 <= x(111)#111 <= 1
 0 <= x(112)#112 <= 1
 0 <= x(113)#113 <= 1
 0 <= x(114)#114 <= 1
 0 <= x(115)#115 <= 1
 0 <= x(116)#116 <= 1
 0 <= x(117)#117 <= 1
 0 <= x(118)#118 <= 1
 0 <= x(119)#119 <= 1
 0 <= x(120)#120 <= 1
 0 <= x(121)#121 <= 1
 0 <= x(122)#122 <= 1
 0 <= x(123)#123 <= 1
 0 <= x(124)#124 <= 1
 0 <= x(125)#125 <= 1
 0 <= x(126)#126 <= 1
 0 <= x(127)#127 <= 1
 0 <= x(128)#128 <= 1
 0 <= x(129)#129 <= 1
 0 <= x(130)#130 <= 1
 0 <= x(131)#131 <= 1
 0 <= x(132)#132 <= 1
 0 <= x(133)#133 <= 1
 0 <= x(134)#134 <= 1
 0 <= x(135)#135 <= 1
 0 <= x(136)#136 <= 1
 0 <= x(137)#137 <= 1
 0 <= x(138)#138 <= 1
 0 <= x(139)#139 <= 1
 0 <= x(140)#140 <= 1
 0 <= x(141)#141 <= 1
 0 <= x(142)#142 <= 1
 0 <= x(143)#143 <= 1
 0 <= x(144)#144 <= 1
 0 <= x(145)#145 <= 1
 0 <= x(146)#146 <= 1
 0 <= x(147)#147 <= 1
 0 <= x(148)#148 <= 1
 0 <= x(149)#149 <= 1
 0 <= x(150)#150 <= 1
 0 <= x(151)#151 <= 1
 0 <= x(152)#152 <= 1
 0 <= x(153)#153 <= 1
 0 <= x(154)#154 <= 1
 0 <= x(155)#155 <= 1
 0 <= x(156)#156 <= 1
 0 <= x(157)#157 <= 1
 0 <= x(158)#158 <= 1
 0 <= x(159)#159 <= 1
 0 <= x(160)#160 <= 1
 0 <= x(161)#161 <= 1
 0 <= x(162)#162 <= 1
 0 <= x(163)#163 <= 1
 0 <= x(164)#164 <= 1
 0 <= x(165)#165 <= 1
 0 <= x(166)#166 <= 1
 0 <= x(167)#167 <= 1
 0 <= x(168)#168 <= 1
 0 <= x(169)#169 <= 1
 0 <= x(170)#170 <= 1
 0 <= x(171)#171 <= 1
 0 <= x(172)#172 <= 1
 0 <= x(173)#173 <= 1
 0 <= x(174)#174 <= 1
 0 <= x(175)#175 <= 1
 0 <= x(176)#176 <= 1
 0 <= x(177)#177 <= 1
 0 <= x(178)#178 <= 1
 0 <= x(179)#179 <= 1
 0 <= x(180)#180 <= 1
 0 <= x(181)#181 <= 1
 0 <= x(182)#182 <= 1
 0 <= x(183)#183 <= 1
 0 <= x(184)#184 <= 1
 0 <= x(185)#185 <= 1
 0 <= x(186)#186 <= 1
 0 <= x(187)#187 <= 1
 0 <= x(188)#188 <= 1
 0 <= x(189)#189 <= 1
 0 <= x(190)#190 <= 1
 0 <= x(191)#191 <= 1
 0 <= x(192)#192 <= 1
 0 <= x(193)#193 <= 1
 0 <= x(194)#194 <= 1
 0 <= x(195)#195 <= 1
 0 <= x(196)#196 <= 1
 0 <= x(197)#197 <= 1
 0 <= x(198)#198 <= 1
 0 <= x(199)#199 <= 1
 0 <= x(200)#200 <= 1
 0 <= x(201)#201 <= 1
 0 <= x(202)#202 <= 1
 0 <= x(203)#203 <= 1
 0 <= x(204)#204 <= 1
 0 <= x(205)#205 <= 1
 0 <= x(206)#206 <= 1
 0 <= x(207)#207 <= 1
 0 <= x(208)#208 <= 1
 0 <= x(209)#209 <= 1
 0 <= x(210)#210 <= 1
 0 <= x(211)#211 <= 1
 0 <= x(212)#212 <= 1
 0 <= x(213)#213 <= 1
 0 <= x(214)#214 <= 1
 0 <= x(215)#215 <= 1
 0 <= x(216)#216 <= 1
 0 <= x(217)#217 <= 1
 0 <= x(218)#218 <= 1
 0 <= x(219)#219 <= 1
 0 <= x(220)#220 <= 1
 0 <= x(221)#221 <= 1
 0 <= x(222)#222 <= 1
 0 <= x(223)#223 <= 1
 0 <= x(224)#224 <= 1
 0 <= x(225)#225 <= 1
 0 <= x(226)#226 <= 1
 0 <= x(227)#227 <= 1
 0 <= x(228)#228 <= 1
 0 <= x(229)#229 <= 1
 0 <= x(230)#230 <= 1
 0 <= x(231)#231 <= 1
 0 <= x(232)#232 <= 1
 0 <= x(233)#233 <= 1
 0 <= x(234)#234 <= 1
 0 <= x(235)#235 <= 1
 0 <= x(236)#236 <= 1
 0 <= x(237)#237 <= 1
 0 <= x(238)#238 <= 1
 0 <= x(239)#239 <= 1
 0 <= x(240)#240 <= 1
 0 <= x(241)#241 <= 1
 0 <= x(242)#242 <= 1
 0 <= x(243)#243 <= 1
 0 <= x(244)#244 <= 1
 0 <= x(245)#245 <= 1
 0 <= x(246)#246 <= 1
 0 <= x(247)#247 <= 1
 0 <= x(248)#248 <= 1
 0 <= x(249)#249 <= 1
Generals
 x(0)#0  x(1)#1  x(2)#2  x(3)#3  x(4)#4  x(5)#5  x(6)#6  x(7)#7  x(8)#8 
 x(9)#9  x(10)#10  x(11)#11  x(12)#12  x(13)#13  x(14)#14  x(15)#15  x(16)#16 
 x(17)#17  x(18)#18  x(19)#19  x(20)#20  x(21)#21  x(22)#22  x(23)#23 
 x(24)#24  x(25)#25  x(26)#26  x(27)#27  x(28)#28  x(29)#29  x(30)#30 
 x(31)#31  x(32)#32  x(33)#33  x(34)#34  x(35)#35  x(36)#36  x(37)#37 
 x(38)#38  x(39)#39  x(40)#40  x(41)#41  x(42)#42  x(43)#43  x(44)#44 
 x(45)#45  x(46)#46  x(47)#47  x(48)#48  x(49)#49  x(50)#50  x(51)#51 
 x(52)#52  x(53)#53  x(54)#54  x(55)#55  x(56)#56  x(57)#57  x(58)#58 
 x(59)#59  x(60)#60  x(61)#61  x(62)#62  x(63)#63  x(64)#64  x(65)#65 
 x(66)#66  x(67)#67  x(68)#68  x(69)#69  x(70)#70  x(71)#71  x(72)#72 
 x(73)#73  x(74)#74  x(75)#75  x(76)#76  x(77)#77  x(78)#78  x(79)#79 
 x(80)#80  x(81)#81  x(82)#82  x(83)#83  x(84)#84  x(85)#85  x(86)#86 
 x(87)#87  x(88)#88  x(89)#89  x(90)#90  x(91)#91  x(92)#92  x(93)#93 
 x(94)#94  x(95)#95  x(96)#96  x(97)#97  x(98)#98  x(99)#99  x(100)#100 
 x(101)#101  x(102)#102  x(103)#103  x(104)#104  x(105)#105  x(106)#106 
 x(107)#107  x(108)#108  x(109)#109  x(110)#110  x(111)#111  x(112)#112 
 x(113)#113  x(114)#114  x(115)#115  x(116)#116  x(117)#117  x(118)#118 
 x(119)#119  x(120)#120  x(121)#121  x(122)#122  x(123)#123  x(124)#124 
 x(125)#125  x(126)#126  x(127)#127  x(128)#128  x(129)#129  x(130)#130 
 x(131)#131  x(132)#132  x(133)#133  x(134)#134  x(135)#135  x(136)#136 
 x(137)#137  x(138)#138  x(139)#139  x(140)#140  x(141)#141  x(142)#142 
 x(143)#143  x(144)#144  x(145)#145  x(146)#146  x(147)#147  x(148)#148 
 x(149)#149  x(150)#150  x(151)#151  x(152)#152  x(153)#153  x(154)#154 
 x(155)#155  x(156)#156  x(157)#157  x(158)#158  x(159)#159  x(160)#160 
 x(161)#161  x(162)#162  x(163)#163  x(164)#164  x(165)#165  x(166)#166 
 x(167)#167  x(168)#168  x(169)#169  x(170)#170  x(171)#171  x(172)#172 
 x(173)#173  x(174)#174  x(175)#175  x(176)#176  x(177)#177  x(178)#178 
 x(179)#179  x(180)#180  x(181)#181  x(182)#182  x(183)#183  x(184)#184 
 x(185)#185  x(186)#186  x(187)#187  x(188)#188  x(189)#189  x(190)#190 
 x(191)#191  x(192)#192  x(193)#193  x(194)#194  x(195)#195  x(196)#196 
 x(197)#197  x(198)#198  x(199)#199  x(200)#200  x(201)#201  x(202)#202 
 x(203)#203  x(204)#204  x(205)#205  x(206)#206  x(207)#207  x(208)#208 
 x(209)#209  x(210)#210  x(211)#211  x(212)#212  x(213)#213  x(214)#214 
 x(215)#215  x(216)#216  x(217)#217  x(218)#218  x(219)#219  x(220)#220 
 x(221)#221  x(222)#222  x(223)#223  x(224)#224  x(225)#225  x(226)#226 
 x(227)#227  x(228)#228  x(229)#229  x(230)#230  x(231)#231  x(232)#232 
 x(233)#233  x(234)#234  x(235)#235  x(236)#236  x(237)#237  x(238)#238 
 x(239)#239  x(240)#240  x(241)#241  x(242)#242  x(243)#243  x(244)#244 
 x(245)#245  x(246)#246  x(247)#247  x(248)#248  x(249)#249 
End
